c BabySAT DPLL SAT Solver
c
c Copyright (c) 2026, Benjamin Deutsch
c Version 0.0.4 3f70528ad16f8c5ae9a5b9cc5ac28edf924451f6
c Compiled with 'g++ -Wall -std=c++11 -O3 -DNDEBUG'
c
c reading from 'cnfs/add4.cnf'
c parsed header 'p cnf 60 157'
c
c             decisions             variables
c   seconds              conflicts            remaining
c
c *    0.00           0           0        59  98%
c d    0.00           1           0        59  98%
c d    0.00           2           0        59  98%
c d    0.00           4           0        59  98%
c d    0.00           8           0        59  98%
c d    0.00          16          10        59  98%
c d    0.00          32          28        59  98%
c d    0.00          64          61        59  98%
c d    0.00         128         123        52  87%
c 0    0.00         162         163         0   0%
c
s UNSATISFIABLE
c
c conflicts:                   163     49831.86 per second
c decisions:                   162     49526.14 per second
c propagations:                  0         0.00 million per second
c
c process-time:               0.00 seconds
c
c exit code 20
